InboundTrucks  = 12;
OutboundTrucks = 8;
InboundDoors   = 2;
OutboundDoors  = 1;
ReleaseTime    = [32,13,19,4,23,14,29,10,6,19,28,15];
UnloadTime     = [9,7,7,3,6,5,8,2,7,2,9,8];
LoadTime       = [10,2,9,10,8,5,6,10];
TransferTime   = [| 1,5,3,4,4,2,3,4 | 1,4,1,5,1,1,2,4 | 4,3,3,4,5,2,1,2 | 5,3,4,1,4,3,5,1 | 2,1,4,1,3,1,3,3 | 5,5,2,4,5,5,2,2 | 2,2,4,3,3,4,2,4 | 3,1,4,1,5,5,4,2 | 1,4,2,4,2,5,2,1 | 5,5,1,3,1,2,1,4 | 5,4,3,1,3,5,1,5 | 1,4,3,2,2,5,1,1 |];
